max: D;
D + DE + DP + DY - 0.92 ED - 0.69 PD - 1.19 YD = 1;
ED + EP + EY - 1.08 DE - 0.76 PE - 1.30 YE = 0;
PD + PE + PY - 1.43 DP - 1.31 EP - 1.72 YP = 0;
YD + YP + YE - 0.84 DY - 0.76 EY - 0.58 PY = 0;
D <= 10000;
